c Generated map
c Size: 8 * 8, weights in range: 1 to 10, walls: True, with ratio 0.05
c dim 6 of 8
c
p sp 64 102
c graph contains 64 nodes and 102 arcs
c
a 1 9 9
a 9 1 9
a 1 2 7
a 2 1 7
a 2 10 7
a 10 2 7
a 2 3 2
a 3 2 2
a 3 11 7
a 11 3 7
a 3 4 1
a 4 3 1
a 4 12 1
a 12 4 1
a 4 5 8
a 5 4 8
a 5 13 2
a 13 5 2
a 5 6 6
a 6 5 6
a 6 14 7
a 14 6 7
a 6 7 2
a 7 6 2
a 7 15 10
a 15 7 10
a 7 8 5
a 8 7 5
a 8 16 5
a 16 8 5
a 9 17 8
a 17 9 8
a 9 10 1
a 10 9 1
a 10 18 9
a 18 10 9
a 10 11 7
a 11 10 7
a 11 19 2
a 19 11 2
a 11 12 4
a 12 11 4
a 12 20 10
a 20 12 10
a 12 13 1
a 13 12 1
a 13 21 5
a 21 13 5
a 13 14 7
a 14 13 7
a 14 22 9
a 22 14 9
a 14 15 3
a 15 14 3
a 15 23 2
a 23 15 2
a 15 16 8
a 16 15 8
a 17 25 8
a 25 17 8
a 17 18 5
a 18 17 5
a 18 26 4
a 26 18 4
a 18 19 9
a 19 18 9
a 19 27 2
a 27 19 2
a 19 20 6
a 20 19 6
a 20 28 9
a 28 20 9
a 20 21 4
a 21 20 4
a 21 29 8
a 29 21 8
a 21 22 1
a 22 21 1
a 22 30 1
a 30 22 1
a 22 23 2
a 23 22 2
a 23 31 3
a 31 23 3
a 25 33 7
a 33 25 7
a 25 26 4
a 26 25 4
a 26 34 4
a 34 26 4
a 26 27 10
a 27 26 10
a 27 35 6
a 35 27 6
a 27 28 6
a 28 27 6
a 28 36 4
a 36 28 4
a 28 29 7
a 29 28 7
a 29 37 4
a 37 29 4
a 29 30 4
a 30 29 4
a 30 38 7
a 38 30 7
a 30 31 9
a 31 30 9
a 31 32 8
a 32 31 8
a 32 40 6
a 40 32 6
a 33 34 9
a 34 33 9
a 34 42 4
a 42 34 4
a 34 35 8
a 35 34 8
a 35 43 7
a 43 35 7
a 35 36 7
a 36 35 7
a 36 44 3
a 44 36 3
a 36 37 5
a 37 36 5
a 37 45 4
a 45 37 4
a 37 38 3
a 38 37 3
a 38 46 7
a 46 38 7
a 40 48 10
a 48 40 10
a 42 50 2
a 50 42 2
a 42 43 3
a 43 42 3
a 43 51 2
a 51 43 2
a 43 44 2
a 44 43 2
a 44 52 8
a 52 44 8
a 44 45 2
a 45 44 2
a 45 53 6
a 53 45 6
a 45 46 4
a 46 45 4
a 46 54 8
a 54 46 8
a 46 47 1
a 47 46 1
a 47 55 1
a 55 47 1
a 47 48 2
a 48 47 2
a 48 56 5
a 56 48 5
a 49 57 6
a 57 49 6
a 49 50 8
a 50 49 8
a 50 58 6
a 58 50 6
a 50 51 10
a 51 50 10
a 51 59 4
a 59 51 4
a 51 52 9
a 52 51 9
a 52 60 1
a 60 52 1
a 52 53 7
a 53 52 7
a 53 61 3
a 61 53 3
a 53 54 2
a 54 53 2
a 54 62 4
a 62 54 4
a 54 55 2
a 55 54 2
a 55 63 6
a 63 55 6
a 55 56 8
a 56 55 8
a 56 64 8
a 64 56 8
a 57 58 5
a 58 57 5
a 58 59 4
a 59 58 4
a 59 60 9
a 60 59 9
a 60 61 2
a 61 60 2
a 61 62 9
a 62 61 9
a 62 63 7
a 63 62 7
a 63 64 2
a 64 63 2
